; aiohttp :: corpus-study/repo_src/aiohttp/aiohttp/_websocket/writer.py :: LOCK 'WebSocketWriter._send_lock' :: naive encoding (verdict: sat)
; Generated by snf-pipeline (encoder.py) -- run with any
; SMT-LIB2-compliant solver, e.g. `z3 aiohttp__corpus-study_repo_src_aiohttp_aiohttp__websocket_writer.py__WebSocketWriter._send_lock__naive.smt2`
; benchmark generated from python API
(set-info :status unknown)
(declare-fun holds_1 () Bool)
(declare-fun holds_0 () Bool)
(assert
 (or (and holds_0 holds_1)))
(check-sat)
